1000
200 200
1 160 50
2 160 920
3 160 880
4 160 597
5 160 871
6 160 569
7 160 280
8 160 952
9 160 882
10 160 650
11 159 483
12 159 645
13 159 166
14 159 315
15 159 707
16 159 334
17 159 943
18 159 580
19 159 552
20 159 362
21 159 546
22 159 466
23 159 197
24 159 850
25 158 809
26 158 652
27 158 17
28 158 554
29 158 738
30 158 73
31 158 344
32 157 370
33 157 78
34 157 832
35 157 688
36 157 813
37 157 229
38 156 186
39 156 680
40 156 930
41 155 767
42 155 489
43 155 495
44 155 787
45 155 541
46 154 411
47 154 342
48 153 863
49 153 265
50 153 542
51 153 748
52 153 273
53 153 794
54 153 643
55 153 0
56 153 716
57 153 649
58 153 417
59 152 651
60 152 715
61 152 396
62 152 707
63 152 196
64 152 994
65 152 646
66 152 587
67 152 951
68 152 875
69 152 801
70 151 607
71 151 52
72 151 708
73 151 916
74 151 35
75 151 614
76 150 450
77 150 275
78 150 771
79 150 437
80 150 228
81 150 619
82 150 181
83 150 319
84 149 999
85 149 428
86 149 155
87 149 463
88 149 731
89 149 365
90 149 134
91 149 684
92 149 496
93 149 668
94 149 388
95 149 416
96 148 950
97 148 844
98 148 47
99 148 610
100 148 387
101 148 297
102 148 75
103 147 683
104 147 712
105 147 516
106 147 390
107 147 863
108 147 130
109 147 457
110 147 523
111 146 867
112 146 920
113 146 481
114 146 203
115 146 653
116 146 792
117 145 293
118 145 672
119 145 577
120 145 749
121 145 27
122 145 225
123 145 741
124 145 993
125 144 323
126 144 997
127 144 116
128 144 88
129 144 287
130 144 434
131 144 889
132 144 391
133 144 103
134 144 961
135 144 792
136 144 877
137 144 686
138 144 760
139 144 83
140 143 604
141 143 703
142 143 866
143 143 751
144 143 918
145 143 894
146 143 821
147 143 73
148 143 596
149 143 649
150 143 775
151 142 347
152 142 699
153 142 959
154 142 483
155 142 865
156 142 408
157 142 857
158 142 69
159 142 750
160 142 800
161 141 561
162 141 388
163 141 127
164 141 185
165 141 128
166 141 705
167 141 269
168 141 477
169 141 455
170 140 444
171 140 7
172 140 225
173 140 802
174 140 296
175 140 257
176 140 118
177 140 981
178 140 381
179 139 556
180 139 626
181 139 113
182 139 438
183 139 322
184 139 272
185 139 195
186 139 642
187 139 488
188 139 863
189 138 214
190 138 468
191 138 468
192 138 723
193 138 572
194 138 126
195 138 811
196 138 808
197 137 175
198 137 268
199 137 973
200 137 817
201 136 4
202 136 291
203 136 553
204 136 170
205 135 454
206 135 670
207 135 484
208 135 680
209 135 519
210 134 37
211 134 623
212 134 480
213 134 373
214 134 61
215 134 907
216 134 324
217 134 77
218 133 718
219 133 868
220 133 930
221 132 867
222 132 623
223 132 483
224 132 870
225 131 103
226 131 404
227 131 648
228 131 617
229 131 287
230 131 654
231 131 525
232 131 446
233 130 204
234 130 722
235 130 924
236 130 182
237 130 60
238 130 214
239 130 709
240 130 633
241 130 565
242 129 874
243 129 93
244 129 645
245 129 917
246 129 80
247 129 461
248 129 574
249 129 828
250 129 562
251 129 508
252 128 133
253 128 56
254 128 239
255 128 755
256 128 560
257 128 277
258 128 652
259 128 728
260 127 8
261 127 384
262 127 793
263 127 581
264 127 970
265 127 382
266 127 690
267 127 877
268 127 755
269 126 520
270 126 460
271 126 316
272 126 283
273 126 571
274 126 38
275 126 491
276 126 481
277 125 685
278 125 334
279 125 735
280 125 103
281 125 373
282 125 813
283 125 722
284 124 312
285 124 172
286 124 696
287 124 40
288 123 888
289 123 498
290 123 441
291 123 976
292 123 234
293 123 961
294 123 471
295 123 161
296 123 564
297 123 689
298 122 970
299 122 803
300 122 883
301 122 193
302 122 482
303 122 431
304 122 441
305 122 300
306 121 608
307 121 58
308 121 976
309 121 54
310 120 209
311 120 846
312 120 894
313 120 802
314 120 110
315 120 491
316 120 625
317 120 161
318 120 959
319 119 667
320 119 255
321 119 43
322 119 599
323 119 928
324 119 372
325 119 680
326 119 32
327 118 25
328 118 115
329 118 462
330 118 746
331 118 842
332 118 863
333 118 837
334 118 920
335 118 637
336 118 801
337 117 255
338 117 769
339 117 846
340 117 282
341 117 537
342 117 145
343 117 325
344 117 861
345 116 855
346 116 346
347 116 454
348 116 381
349 116 78
350 116 358
351 116 433
352 116 826
353 116 155
354 116 752
355 116 397
356 116 372
357 116 175
358 115 255
359 115 761
360 115 247
361 115 566
362 115 405
363 115 524
364 115 396
365 115 714
366 114 990
367 114 396
368 114 835
369 114 12
370 114 704
371 114 111
372 114 752
373 114 279
374 114 732
375 114 298
376 113 936
377 113 464
378 113 161
379 113 856
380 113 970
381 113 442
382 113 962
383 112 556
384 112 175
385 112 277
386 112 266
387 112 56
388 111 878
389 111 377
390 111 391
391 111 94
392 111 242
393 111 25
394 111 726
395 111 916
396 111 493
397 110 341
398 110 125
399 110 821
400 110 705
401 110 107
402 110 155
403 110 13
404 110 532
405 109 265
406 109 67
407 109 319
408 109 141
409 108 576
410 108 934
411 108 862
412 108 956
413 108 322
414 108 274
415 108 285
416 108 835
417 108 324
418 107 22
419 107 559
420 107 560
421 107 800
422 107 715
423 107 574
424 107 14
425 107 130
426 107 102
427 107 730
428 107 326
429 106 337
430 106 662
431 106 501
432 106 595
433 106 670
434 105 250
435 104 757
436 104 654
437 104 915
438 104 846
439 104 986
440 104 67
441 103 703
442 103 79
443 103 394
444 103 835
445 103 224
446 103 168
447 103 455
448 103 136
449 102 145
450 102 39
451 102 101
452 102 11
453 102 647
454 102 645
455 102 198
456 101 520
457 101 629
458 101 365
459 101 351
460 101 72
461 101 915
462 101 720
463 100 553
464 100 435
465 100 460
466 100 397
467 100 109
468 100 398
469 100 696
470 100 131
471 99 88
472 99 14
473 99 54
474 99 33
475 99 935
476 99 946
477 99 807
478 99 87
479 99 672
480 99 577
481 99 199
482 99 885
483 98 130
484 98 373
485 98 454
486 98 273
487 98 115
488 98 811
489 97 223
490 97 593
491 97 237
492 97 847
493 97 222
494 97 167
495 97 627
496 97 414
497 96 15
498 96 10
499 96 281
500 96 702
501 96 234
502 96 539
503 96 570
504 96 280
505 95 956
506 95 146
507 95 703
508 95 351
509 95 602
510 95 707
511 95 368
512 95 564
513 95 501
514 95 2
515 95 370
516 94 387
517 94 797
518 94 716
519 94 47
520 94 690
521 94 45
522 94 70
523 93 993
524 93 878
525 93 147
526 93 760
527 93 803
528 93 383
529 93 437
530 93 793
531 93 840
532 92 438
533 92 236
534 92 771
535 92 398
536 92 48
537 92 915
538 92 492
539 91 898
540 91 215
541 91 111
542 91 90
543 91 452
544 91 152
545 91 56
546 91 956
547 91 216
548 91 820
549 90 100
550 90 861
551 90 234
552 90 473
553 90 334
554 90 746
555 90 835
556 90 425
557 90 628
558 90 97
559 90 459
560 89 322
561 89 265
562 89 379
563 89 394
564 88 132
565 88 856
566 88 16
567 88 519
568 88 185
569 88 520
570 87 353
571 87 269
572 87 204
573 87 387
574 87 988
575 87 654
576 87 303
577 87 694
578 87 409
579 87 915
580 87 895
581 86 153
582 86 879
583 86 786
584 86 241
585 86 600
586 86 296
587 86 196
588 86 194
589 86 516
590 86 849
591 86 428
592 86 707
593 85 194
594 85 933
595 85 858
596 85 189
597 85 361
598 85 338
599 85 889
600 85 403
601 85 738
602 85 468
603 84 920
604 84 186
605 84 458
606 84 75
607 84 889
608 84 128
609 84 364
610 84 678
611 84 769
612 84 360
613 84 444
614 84 874
615 83 842
616 83 69
617 83 129
618 83 894
619 83 393
620 83 963
621 83 955
622 83 285
623 83 45
624 83 925
625 83 234
626 83 448
627 83 974
628 82 248
629 82 621
630 82 367
631 82 589
632 82 245
633 82 293
634 82 133
635 82 374
636 82 330
637 81 52
638 81 320
639 81 608
640 81 347
641 81 307
642 81 554
643 81 110
644 81 901
645 81 467
646 81 849
647 81 777
648 81 671
649 80 34
650 80 285
651 80 556
652 80 502
653 80 664
654 80 26
655 79 160
656 79 757
657 79 143
658 79 383
659 79 369
660 79 731
661 78 633
662 78 520
663 78 92
664 78 964
665 78 542
666 78 752
667 78 288
668 78 693
669 78 938
670 78 803
671 78 237
672 78 248
673 78 84
674 78 815
675 78 346
676 77 825
677 77 701
678 77 329
679 77 798
680 77 269
681 77 333
682 77 314
683 77 495
684 77 890
685 77 15
686 76 748
687 76 381
688 76 726
689 76 718
690 76 618
691 76 514
692 76 705
693 76 783
694 76 451
695 75 901
696 75 656
697 75 314
698 75 464
699 75 550
700 75 799
701 75 650
702 74 632
703 74 458
704 74 843
705 74 914
706 74 676
707 73 595
708 73 215
709 73 533
710 73 222
711 73 553
712 73 548
713 73 20
714 73 178
715 72 925
716 72 495
717 71 415
718 71 544
719 71 939
720 71 826
721 71 720
722 71 860
723 71 250
724 71 786
725 71 884
726 71 247
727 70 366
728 70 681
729 70 565
730 70 729
731 70 426
732 70 118
733 70 434
734 70 548
735 70 30
736 70 490
737 70 319
738 69 915
739 69 354
740 69 246
741 69 621
742 69 115
743 69 715
744 68 414
745 68 534
746 68 706
747 68 864
748 68 136
749 68 734
750 67 367
751 67 647
752 67 41
753 67 753
754 67 573
755 67 476
756 67 314
757 67 544
758 66 373
759 66 663
760 66 772
761 66 624
762 66 108
763 66 778
764 66 306
765 66 833
766 66 399
767 66 453
768 65 901
769 65 922
770 65 706
771 65 803
772 65 425
773 65 511
774 65 657
775 65 570
776 65 637
777 65 814
778 65 86
779 65 558
780 64 124
781 64 819
782 64 774
783 64 307
784 64 329
785 64 107
786 64 630
787 64 41
788 64 334
789 64 872
790 63 919
791 63 291
792 63 280
793 63 598
794 63 562
795 62 135
796 62 358
797 62 72
798 62 430
799 62 987
800 62 915
801 62 702
802 62 607
803 62 207
804 62 420
805 62 917
806 62 316
807 62 360
808 61 654
809 61 94
810 61 966
811 61 599
812 61 726
813 61 667
814 61 517
815 61 528
816 60 894
817 60 370
818 60 820
819 60 618
820 60 78
821 60 193
822 59 41
823 59 119
824 59 360
825 59 603
826 59 707
827 59 932
828 59 299
829 59 616
830 59 585
831 59 39
832 59 761
833 58 831
834 58 761
835 58 843
836 58 735
837 58 933
838 58 378
839 57 445
840 57 1
841 57 101
842 57 670
843 57 986
844 57 236
845 57 983
846 57 789
847 57 334
848 57 961
849 56 281
850 56 19
851 56 464
852 56 121
853 56 186
854 56 372
855 56 446
856 56 107
857 56 464
858 55 123
859 55 694
860 55 316
861 55 898
862 55 591
863 55 68
864 55 909
865 55 19
866 55 918
867 55 140
868 55 324
869 55 194
870 55 724
871 55 127
872 55 646
873 55 484
874 54 425
875 54 38
876 54 762
877 54 703
878 54 676
879 54 332
880 54 671
881 54 515
882 54 309
883 54 253
884 54 49
885 54 220
886 54 679
887 54 125
888 53 228
889 53 515
890 53 460
891 53 100
892 53 631
893 53 389
894 53 216
895 53 165
896 53 623
897 52 522
898 52 887
899 52 208
900 52 989
901 52 243
902 52 622
903 52 30
904 52 672
905 51 419
906 51 369
907 51 400
908 51 548
909 51 453
910 51 397
911 51 913
912 51 291
913 50 667
914 50 244
915 50 365
916 50 424
917 50 839
918 50 663
919 50 195
920 49 368
921 49 688
922 49 33
923 49 805
924 49 886
925 49 564
926 49 694
927 48 440
928 48 58
929 48 768
930 48 279
931 48 602
932 48 231
933 48 698
934 48 202
935 48 25
936 47 577
937 47 52
938 47 256
939 47 125
940 47 687
941 47 817
942 47 772
943 47 947
944 47 704
945 47 269
946 46 839
947 46 400
948 46 806
949 46 861
950 46 210
951 46 731
952 46 262
953 46 118
954 46 25
955 46 108
956 46 917
957 46 408
958 45 492
959 45 588
960 45 969
961 45 608
962 45 672
963 45 813
964 45 637
965 45 96
966 45 262
967 45 498
968 44 212
969 44 82
970 44 746
971 44 853
972 44 786
973 44 161
974 44 518
975 44 232
976 44 906
977 44 648
978 43 514
979 43 641
980 43 707
981 43 264
982 43 730
983 43 217
984 43 680
985 43 48
986 42 745
987 42 563
988 42 520
989 42 586
990 42 835
991 42 934
992 42 835
993 42 933
994 41 768
995 40 850
996 40 441
997 40 39
998 40 625
999 40 330
1000 40 579
